p edge 160 629
c 4985
e 0 72 1 0
e 0 14 1 1
e 0 132 1 2
e 0 9 1 3
e 0 32 1 4
e 0 53 18 5
e 0 88 1 6
e 0 119 1 7
e 1 30 16 9
e 1 64 8 10
e 1 16 12 11
e 1 157 19 12
e 1 5 23 13
e 1 7 35 14
e 1 57 5 15
e 3 11 1 24
e 3 77 31 25
e 4 81 1 31
e 4 22 1 33
e 4 49 6 34
e 4 75 4 35
e 4 104 18 36
e 4 135 1 37
e 5 31 1 38
e 5 118 1 39
e 5 32 1 41
e 5 76 1 42
e 5 87 1 43
e 5 113 1 44
e 5 126 8 45
e 5 140 1 46
e 6 157 1 48
e 6 40 2 50
e 6 48 1 51
e 6 109 1 52
e 7 124 45 54
e 7 110 1 55
e 7 91 1 56
e 7 128 1 57
e 8 62 49 59
e 8 110 1 60
e 8 28 2 61
e 8 15 1 62
e 8 60 2 63
e 9 113 2 66
e 9 149 37 67
e 9 44 2 68
e 9 56 1 69
e 9 135 1 71
e 10 157 1 72
e 10 19 28 74
e 10 45 3 75
e 10 11 1 76
e 10 20 1 77
e 10 148 1 78
e 11 126 27 79
e 11 61 25 80
e 11 98 1 81
e 11 28 1 82
e 11 38 2 83
e 11 68 21 84
e 11 111 1 86
e 11 115 1 87
e 11 134 11 88
e 11 145 29 89
e 12 76 1 90
e 12 97 20 91
e 12 60 1 92
e 12 65 1 94
e 12 132 1 95
e 13 143 2 96
e 13 26 2 97
e 13 42 1 98
e 13 58 2 99
e 13 73 1 100
e 14 72 2 102
e 14 31 1 104
e 14 77 5 105
e 14 73 1 106
e 14 76 1 107
e 14 110 1 109
e 14 127 3 110
e 15 147 1 112
e 15 84 1 114
e 15 62 44 115
e 15 111 1 116
e 15 117 1 117
e 16 89 1 120
e 16 115 1 122
e 16 61 1 123
e 16 118 1 124
e 17 99 1 125
e 17 19 1 126
e 17 109 1 127
e 17 114 1 128
e 17 26 1 129
e 17 105 18 131
e 17 107 38 132
e 17 149 46 133
e 18 110 1 134
e 18 114 1 136
e 18 119 1 137
e 18 25 1 138
e 18 122 26 139
e 18 130 19 140
e 18 139 1 141
e 18 142 1 142
e 18 152 1 143
e 19 141 13 144
e 19 29 38 148
e 20 69 1 151
e 20 128 1 152
e 20 80 1 153
e 21 115 1 155
e 21 134 48 156
e 21 79 33 157
e 21 83 1 158
e 21 39 1 159
e 21 50 1 160
e 21 99 1 161
e 22 54 42 163
e 22 23 1 164
e 22 71 1 165
e 22 38 1 166
e 22 53 2 168
e 23 136 1 169
e 23 54 11 170
e 23 41 2 171
e 23 148 1 172
e 23 59 1 174
e 24 90 6 175
e 24 154 1 176
e 24 41 2 177
e 24 47 49 179
e 24 62 7 181
e 24 81 1 183
e 24 143 1 185
e 25 129 2 187
e 25 158 1 188
e 25 41 1 189
e 25 114 1 190
e 26 74 1 191
e 26 145 8 192
e 26 38 3 194
e 26 39 1 195
e 26 61 18 196
e 26 117 1 197
e 27 109 1 198
e 27 65 1 199
e 27 112 1 200
e 27 128 1 201
e 27 74 2 203
e 28 93 1 205
e 28 158 1 206
e 28 95 8 207
e 28 112 1 208
e 28 121 47 209
e 29 154 1 211
e 29 56 1 212
e 30 76 17 214
e 30 145 46 215
e 31 81 1 218
e 31 44 1 219
e 31 120 2 220
e 31 121 12 221
e 32 72 1 223
e 32 45 25 224
e 32 147 1 227
e 33 135 2 229
e 33 127 1 230
e 33 50 1 231
e 33 158 1 232
e 34 110 1 233
e 34 99 1 234
e 34 134 20 235
e 34 55 1 236
e 34 80 1 237
e 34 108 1 238
e 35 101 1 240
e 35 45 2 241
e 36 96 30 246
e 36 72 26 247
e 36 100 46 248
e 36 39 4 249
e 36 67 9 250
e 36 109 35 251
e 37 101 2 253
e 37 45 44 255
e 38 92 1 257
e 38 41 1 258
e 38 144 1 260
e 38 159 1 261
e 39 99 1 262
e 39 86 25 263
e 39 63 1 264
e 39 94 1 266
e 39 139 1 267
e 40 71 2 268
e 40 98 1 269
e 40 74 1 271
e 41 83 1 274
e 41 119 1 275
e 42 82 1 276
e 42 131 1 277
e 42 155 45 278
e 42 52 44 280
e 43 98 41 282
e 43 133 37 283
e 43 53 15 284
e 43 150 49 285
e 44 142 2 288
e 44 53 30 289
e 44 141 1 290
e 45 152 6 291
e 45 90 22 292
e 45 77 2 293
e 45 48 19 294
e 45 116 26 295
e 45 128 36 296
e 45 149 10 297
e 46 149 46 298
e 46 109 1 299
e 46 138 43 300
e 46 110 1 301
e 46 101 1 303
e 46 159 1 304
e 47 76 5 305
e 47 116 39 306
e 47 74 28 307
e 48 81 2 308
e 48 83 1 309
e 48 121 20 310
e 48 141 2 311
e 49 111 6 312
e 49 117 21 314
e 49 123 19 315
e 49 138 24 316
e 49 156 25 318
e 50 110 1 319
e 50 69 1 320
e 50 123 1 321
e 51 119 2 322
e 51 72 1 327
e 51 95 28 328
e 51 113 1 329
e 51 150 1 330
e 51 154 1 331
e 52 137 45 332
e 52 149 39 333
e 53 129 39 335
e 53 73 48 336
e 53 69 40 337
e 53 74 4 339
e 54 97 27 342
e 54 88 36 343
e 54 58 21 344
e 54 83 3 345
e 54 82 10 346
e 54 100 11 347
e 55 63 1 350
e 55 108 1 351
e 56 127 1 352
e 56 88 1 353
e 57 102 46 355
e 57 66 1 356
e 57 96 1 357
e 57 155 21 358
e 57 158 1 359
e 58 82 1 360
e 58 123 1 362
e 58 91 1 363
e 59 72 1 365
e 59 94 1 366
e 60 90 18 370
e 61 109 11 371
e 61 78 14 373
e 61 142 41 374
e 61 145 40 375
e 62 137 20 376
e 62 105 12 377
e 62 101 4 378
e 62 143 49 379
e 63 95 7 380
e 63 86 46 381
e 63 111 1 382
e 63 83 1 383
e 63 144 1 384
e 64 84 26 385
e 64 110 21 386
e 64 72 14 387
e 64 104 37 389
e 65 123 1 391
e 66 94 1 396
e 66 113 1 397
e 66 86 5 398
e 67 127 1 399
e 67 80 1 400
e 68 109 41 403
e 68 86 33 404
e 69 84 1 405
e 69 126 28 407
e 70 119 1 408
e 70 73 1 409
e 71 143 1 410
e 71 127 2 411
e 71 96 1 414
e 71 157 1 416
e 72 78 1 417
e 72 149 13 418
e 72 118 1 419
e 72 135 1 420
e 73 100 3 421
e 73 123 1 422
e 74 82 1 424
e 74 130 24 425
e 75 84 17 426
e 75 80 45 427
e 75 83 39 428
e 76 84 1 429
e 76 156 1 430
e 76 78 1 431
e 76 102 20 432
e 77 104 35 433
e 77 105 2 434
e 77 137 1 435
e 77 79 19 436
e 77 112 7 437
e 78 154 1 439
e 78 104 21 441
e 79 149 18 442
e 79 107 29 444
e 79 84 31 445
e 79 94 45 446
e 79 158 8 447
e 80 90 33 448
e 80 86 6 449
e 80 102 42 450
e 80 134 22 451
e 80 136 2 452
e 81 152 1 454
e 81 128 1 455
e 81 147 2 456
e 81 99 1 458
e 81 102 9 459
e 82 133 1 461
e 82 142 1 462
e 82 147 1 463
e 82 151 11 464
e 83 89 1 466
e 83 106 1 467
e 83 107 30 468
e 83 137 1 469
e 83 143 1 470
e 83 156 1 471
e 84 88 1 472
e 84 100 1 473
e 84 153 5 475
e 85 91 1 476
e 85 110 1 477
e 85 148 1 478
e 86 118 23 479
e 86 147 27 480
e 87 91 1 481
e 87 155 33 482
e 87 107 5 483
e 87 120 2 484
e 88 143 1 486
e 88 92 1 487
e 88 114 1 488
e 88 125 1 489
e 88 133 1 490
e 89 91 1 491
e 89 138 5 493
e 89 125 1 494
e 89 140 1 495
e 90 126 38 496
e 90 148 43 497
e 90 101 46 498
e 90 97 7 499
e 91 120 1 501
e 91 154 1 502
e 91 149 15 504
e 92 111 1 506
e 93 121 31 509
e 93 129 1 512
e 93 143 1 513
e 93 149 42 514
e 95 128 40 517
e 95 98 16 518
e 95 140 6 519
e 95 150 23 520
e 96 100 1 521
e 96 101 1 522
e 96 110 1 524
e 96 128 1 525
e 97 134 20 526
e 97 143 24 527
e 97 151 18 529
e 98 106 1 531
e 98 128 1 532
e 98 115 1 533
e 98 137 1 534
e 98 151 46 535
e 99 148 2 536
e 100 154 1 538
e 100 111 1 540
e 100 119 2 541
e 101 110 1 544
e 101 108 1 545
e 101 137 1 547
e 101 152 1 548
e 102 121 33 549
e 102 146 30 550
e 103 130 40 553
e 104 124 10 555
e 105 148 22 556
e 105 125 41 557
e 106 123 1 558
e 106 117 1 559
e 106 122 7 560
e 106 148 1 561
e 106 155 34 562
e 106 157 1 563
e 107 124 5 564
e 108 154 1 566
e 108 128 1 568
e 109 147 1 569
e 109 114 1 570
e 110 146 12 572
e 111 140 1 573
e 111 127 1 574
e 112 124 41 575
e 113 144 1 578
e 113 131 1 579
e 113 153 30 580
e 114 121 26 581
e 114 157 1 582
e 115 144 1 584
e 116 157 1 585
e 116 121 27 586
e 117 126 9 587
e 118 157 1 590
e 118 127 2 591
e 118 158 1 593
e 119 157 1 594
e 120 156 1 595
e 121 133 9 598
e 122 140 4 599
e 122 151 25 600
e 122 133 29 601
e 126 134 23 604
e 127 156 1 606
e 129 137 25 607
e 130 138 10 608
e 130 155 32 609
e 130 159 16 610
e 131 151 48 611
e 131 132 1 612
e 131 155 34 614
e 133 135 1 616
e 134 140 27 618
e 138 154 18 620
e 141 148 1 621
e 146 158 29 623
e 147 154 1 624
e 150 151 1 625
e 152 158 1 626
e 155 156 31 628
